# Objective value = 87
x0,1_1 0
x0,1_2 0
x0,1_3 0
x0,1_5 0
x0,1_6 0
x0,1_8 0
x0,1_9 0
x0,1_11 0
x0,1_12 0
x0,1_13 0
x0,1_14 0
x0,1_20 0
x0,1_21 0
x0,1_23 0
x0,1_25 0
x0,1_26 0
x0,1_29 0
x0,1_32 0
x0,1_34 0
x0,1_35 0
x0,2_1 0
x0,2_2 1
x0,2_3 0
x0,2_5 0
x0,2_6 0
x0,2_8 0
x0,2_9 0
x0,2_11 0
x0,2_12 0
x0,2_13 0
x0,2_14 0
x0,2_20 0
x0,2_21 0
x0,2_23 0
x0,2_25 0
x0,2_26 0
x0,2_29 0
x0,2_32 0
x0,2_34 0
x0,2_35 0
x0,3_1 0
x0,3_2 0
x0,3_3 1
x0,3_5 0
x0,3_6 0
x0,3_8 0
x0,3_9 0
x0,3_11 0
x0,3_12 0
x0,3_13 0
x0,3_14 0
x0,3_20 0
x0,3_21 0
x0,3_23 0
x0,3_25 0
x0,3_26 0
x0,3_29 0
x0,3_32 0
x0,3_34 0
x0,3_35 0
x0,4_1 0
x0,4_2 0
x0,4_3 0
x0,4_5 0
x0,4_6 1
x0,4_8 0
x0,4_9 0
x0,4_11 0
x0,4_12 0
x0,4_13 0
x0,4_14 0
x0,4_20 0
x0,4_21 0
x0,4_23 0
x0,4_25 0
x0,4_26 0
x0,4_29 0
x0,4_32 0
x0,4_34 0
x0,4_35 0
x0,5_1 0
x0,5_2 0
x0,5_3 0
x0,5_5 0
x0,5_6 0
x0,5_8 0
x0,5_9 0
x0,5_11 0
x0,5_12 0
x0,5_13 0
x0,5_14 1
x0,5_20 0
x0,5_21 0
x0,5_23 0
x0,5_25 0
x0,5_26 0
x0,5_29 0
x0,5_32 0
x0,5_34 0
x0,5_35 0
x0,6_1 0
x0,6_2 0
x0,6_3 0
x0,6_5 0
x0,6_6 0
x0,6_8 0
x0,6_9 0
x0,6_11 0
x0,6_12 0
x0,6_13 0
x0,6_14 0
x0,6_20 0
x0,6_21 0
x0,6_23 0
x0,6_25 0
x0,6_26 1
x0,6_29 0
x0,6_32 0
x0,6_34 0
x0,6_35 0
x0,7_1 0
x0,7_2 0
x0,7_3 0
x0,7_5 0
x0,7_6 0
x0,7_8 0
x0,7_9 0
x0,7_11 0
x0,7_12 0
x0,7_13 0
x0,7_14 0
x0,7_20 0
x0,7_21 0
x0,7_23 0
x0,7_25 0
x0,7_26 0
x0,7_29 0
x0,7_32 0
x0,7_34 0
x0,7_35 1
x1,2_1 0
x1,2_2 0
x1,2_3 0
x1,2_5 0
x1,2_6 0
x1,2_8 0
x1,2_9 0
x1,2_11 0
x1,2_12 0
x1,2_13 0
x1,2_14 0
x1,2_20 0
x1,2_21 0
x1,2_23 0
x1,2_25 0
x1,2_26 0
x1,2_29 0
x1,2_32 0
x1,2_34 0
x1,2_35 0
x1,3_1 0
x1,3_2 0
x1,3_3 0
x1,3_5 0
x1,3_6 0
x1,3_8 0
x1,3_9 0
x1,3_11 0
x1,3_12 0
x1,3_13 0
x1,3_14 0
x1,3_20 0
x1,3_21 0
x1,3_23 0
x1,3_25 0
x1,3_26 0
x1,3_29 0
x1,3_32 0
x1,3_34 0
x1,3_35 0
x1,4_1 0
x1,4_2 0
x1,4_3 0
x1,4_5 1
x1,4_6 0
x1,4_8 0
x1,4_9 0
x1,4_11 0
x1,4_12 0
x1,4_13 0
x1,4_14 0
x1,4_20 0
x1,4_21 0
x1,4_23 0
x1,4_25 0
x1,4_26 0
x1,4_29 0
x1,4_32 0
x1,4_34 0
x1,4_35 0
x1,5_1 0
x1,5_2 0
x1,5_3 0
x1,5_5 0
x1,5_6 0
x1,5_8 0
x1,5_9 0
x1,5_11 0
x1,5_12 0
x1,5_13 1
x1,5_14 0
x1,5_20 0
x1,5_21 0
x1,5_23 0
x1,5_25 0
x1,5_26 0
x1,5_29 0
x1,5_32 0
x1,5_34 0
x1,5_35 0
x1,6_1 0
x1,6_2 0
x1,6_3 0
x1,6_5 0
x1,6_6 0
x1,6_8 0
x1,6_9 0
x1,6_11 0
x1,6_12 0
x1,6_13 0
x1,6_14 0
x1,6_20 0
x1,6_21 0
x1,6_23 0
x1,6_25 1
x1,6_26 0
x1,6_29 0
x1,6_32 0
x1,6_34 0
x1,6_35 0
x1,7_1 0
x1,7_2 0
x1,7_3 0
x1,7_5 0
x1,7_6 0
x1,7_8 0
x1,7_9 0
x1,7_11 0
x1,7_12 0
x1,7_13 0
x1,7_14 0
x1,7_20 0
x1,7_21 0
x1,7_23 0
x1,7_25 0
x1,7_26 0
x1,7_29 0
x1,7_32 0
x1,7_34 1
x1,7_35 0
x2,3_1 1
x2,3_2 0
x2,3_3 0
x2,3_5 0
x2,3_6 0
x2,3_8 0
x2,3_9 0
x2,3_11 0
x2,3_12 0
x2,3_13 0
x2,3_14 0
x2,3_20 0
x2,3_21 0
x2,3_23 0
x2,3_25 0
x2,3_26 0
x2,3_29 0
x2,3_32 0
x2,3_34 0
x2,3_35 0
x2,4_1 0
x2,4_2 0
x2,4_3 0
x2,4_5 0
x2,4_6 0
x2,4_8 0
x2,4_9 0
x2,4_11 0
x2,4_12 0
x2,4_13 0
x2,4_14 0
x2,4_20 0
x2,4_21 0
x2,4_23 0
x2,4_25 0
x2,4_26 0
x2,4_29 0
x2,4_32 0
x2,4_34 0
x2,4_35 0
x2,5_1 0
x2,5_2 0
x2,5_3 0
x2,5_5 0
x2,5_6 0
x2,5_8 0
x2,5_9 0
x2,5_11 0
x2,5_12 0
x2,5_13 0
x2,5_14 0
x2,5_20 0
x2,5_21 0
x2,5_23 0
x2,5_25 0
x2,5_26 0
x2,5_29 0
x2,5_32 0
x2,5_34 0
x2,5_35 0
x2,6_1 0
x2,6_2 0
x2,6_3 0
x2,6_5 0
x2,6_6 0
x2,6_8 0
x2,6_9 0
x2,6_11 0
x2,6_12 0
x2,6_13 0
x2,6_14 0
x2,6_20 0
x2,6_21 0
x2,6_23 0
x2,6_25 0
x2,6_26 0
x2,6_29 0
x2,6_32 0
x2,6_34 0
x2,6_35 0
x2,7_1 0
x2,7_2 0
x2,7_3 0
x2,7_5 0
x2,7_6 0
x2,7_8 0
x2,7_9 0
x2,7_11 0
x2,7_12 0
x2,7_13 0
x2,7_14 0
x2,7_20 0
x2,7_21 0
x2,7_23 0
x2,7_25 0
x2,7_26 0
x2,7_29 0
x2,7_32 0
x2,7_34 0
x2,7_35 0
x3,4_1 0
x3,4_2 0
x3,4_3 1
x3,4_5 0
x3,4_6 0
x3,4_8 0
x3,4_9 0
x3,4_11 0
x3,4_12 0
x3,4_13 0
x3,4_14 0
x3,4_20 0
x3,4_21 0
x3,4_23 0
x3,4_25 0
x3,4_26 0
x3,4_29 0
x3,4_32 0
x3,4_34 0
x3,4_35 0
x3,5_1 0
x3,5_2 0
x3,5_3 0
x3,5_5 0
x3,5_6 0
x3,5_8 0
x3,5_9 0
x3,5_11 1
x3,5_12 0
x3,5_13 0
x3,5_14 0
x3,5_20 0
x3,5_21 0
x3,5_23 0
x3,5_25 0
x3,5_26 0
x3,5_29 0
x3,5_32 0
x3,5_34 0
x3,5_35 0
x3,6_1 0
x3,6_2 0
x3,6_3 0
x3,6_5 0
x3,6_6 0
x3,6_8 0
x3,6_9 0
x3,6_11 0
x3,6_12 0
x3,6_13 0
x3,6_14 0
x3,6_20 0
x3,6_21 0
x3,6_23 1
x3,6_25 0
x3,6_26 0
x3,6_29 0
x3,6_32 0
x3,6_34 0
x3,6_35 0
x3,7_1 0
x3,7_2 0
x3,7_3 0
x3,7_5 0
x3,7_6 0
x3,7_8 0
x3,7_9 0
x3,7_11 0
x3,7_12 0
x3,7_13 0
x3,7_14 0
x3,7_20 0
x3,7_21 0
x3,7_23 0
x3,7_25 0
x3,7_26 0
x3,7_29 0
x3,7_32 1
x3,7_34 0
x3,7_35 0
x4,5_1 0
x4,5_2 0
x4,5_3 0
x4,5_5 0
x4,5_6 0
x4,5_8 1
x4,5_9 0
x4,5_11 0
x4,5_12 0
x4,5_13 0
x4,5_14 0
x4,5_20 0
x4,5_21 0
x4,5_23 0
x4,5_25 0
x4,5_26 0
x4,5_29 0
x4,5_32 0
x4,5_34 0
x4,5_35 0
x4,6_1 0
x4,6_2 0
x4,6_3 0
x4,6_5 0
x4,6_6 0
x4,6_8 0
x4,6_9 0
x4,6_11 0
x4,6_12 0
x4,6_13 0
x4,6_14 0
x4,6_20 1
x4,6_21 0
x4,6_23 0
x4,6_25 0
x4,6_26 0
x4,6_29 0
x4,6_32 0
x4,6_34 0
x4,6_35 0
x4,7_1 0
x4,7_2 0
x4,7_3 0
x4,7_5 0
x4,7_6 0
x4,7_8 0
x4,7_9 0
x4,7_11 0
x4,7_12 0
x4,7_13 0
x4,7_14 0
x4,7_20 0
x4,7_21 0
x4,7_23 0
x4,7_25 0
x4,7_26 0
x4,7_29 1
x4,7_32 0
x4,7_34 0
x4,7_35 0
x5,6_1 0
x5,6_2 0
x5,6_3 0
x5,6_5 0
x5,6_6 0
x5,6_8 0
x5,6_9 0
x5,6_11 0
x5,6_12 1
x5,6_13 0
x5,6_14 0
x5,6_20 0
x5,6_21 0
x5,6_23 0
x5,6_25 0
x5,6_26 0
x5,6_29 0
x5,6_32 0
x5,6_34 0
x5,6_35 0
x5,7_1 0
x5,7_2 0
x5,7_3 0
x5,7_5 0
x5,7_6 0
x5,7_8 0
x5,7_9 0
x5,7_11 0
x5,7_12 0
x5,7_13 0
x5,7_14 0
x5,7_20 0
x5,7_21 1
x5,7_23 0
x5,7_25 0
x5,7_26 0
x5,7_29 0
x5,7_32 0
x5,7_34 0
x5,7_35 0
x6,7_1 0
x6,7_2 0
x6,7_3 0
x6,7_5 0
x6,7_6 0
x6,7_8 0
x6,7_9 1
x6,7_11 0
x6,7_12 0
x6,7_13 0
x6,7_14 0
x6,7_20 0
x6,7_21 0
x6,7_23 0
x6,7_25 0
x6,7_26 0
x6,7_29 0
x6,7_32 0
x6,7_34 0
x6,7_35 0
p0 0
p1 1
p2 2
p3 3
p4 6
p5 14
p6 26
p7 35
